p cnf 48 181
2 0
1 2 3 4 0
-1 -2 0
-1 -3 0
-2 -3 0
-1 -4 0
-2 -4 0
-3 -4 0
5 6 7 8 0
-5 -6 0
-5 -7 0
-6 -7 0
-5 -8 0
-6 -8 0
-7 -8 0
9 10 11 12 0
-9 -10 0
-9 -11 0
-10 -11 0
-9 -12 0
-10 -12 0
-11 -12 0
13 14 15 16 0
-13 -14 0
-13 -15 0
-14 -15 0
-13 -16 0
-14 -16 0
-15 -16 0
17 18 19 20 0
-17 -18 0
-17 -19 0
-18 -19 0
-17 -20 0
-18 -20 0
-19 -20 0
21 22 23 24 0
-21 -22 0
-21 -23 0
-22 -23 0
-21 -24 0
-22 -24 0
-23 -24 0
25 26 27 28 0
-25 -26 0
-25 -27 0
-26 -27 0
-25 -28 0
-26 -28 0
-27 -28 0
29 30 31 32 0
-29 -30 0
-29 -31 0
-30 -31 0
-29 -32 0
-30 -32 0
-31 -32 0
33 34 35 36 0
-33 -34 0
-33 -35 0
-34 -35 0
-33 -36 0
-34 -36 0
-35 -36 0
37 38 39 40 0
-37 -38 0
-37 -39 0
-38 -39 0
-37 -40 0
-38 -40 0
-39 -40 0
41 42 43 44 0
-41 -42 0
-41 -43 0
-42 -43 0
-41 -44 0
-42 -44 0
-43 -44 0
45 46 47 48 0
-45 -46 0
-45 -47 0
-46 -47 0
-45 -48 0
-46 -48 0
-47 -48 0
-1 -5 0
-2 -6 0
-3 -7 0
-4 -8 0
-1 -9 0
-2 -10 0
-3 -11 0
-4 -12 0
-1 -17 0
-2 -18 0
-3 -19 0
-4 -20 0
-1 -41 0
-2 -42 0
-3 -43 0
-4 -44 0
-5 -13 0
-6 -14 0
-7 -15 0
-8 -16 0
-5 -21 0
-6 -22 0
-7 -23 0
-8 -24 0
-5 -45 0
-6 -46 0
-7 -47 0
-8 -48 0
-45 -29 0
-46 -30 0
-47 -31 0
-48 -32 0
-45 -37 0
-46 -38 0
-47 -39 0
-48 -40 0
-45 -41 0
-46 -42 0
-47 -43 0
-48 -44 0
-41 -33 0
-42 -34 0
-43 -35 0
-44 -36 0
-41 -25 0
-42 -26 0
-43 -27 0
-44 -28 0
-9 -13 0
-10 -14 0
-11 -15 0
-12 -16 0
-9 -29 0
-10 -30 0
-11 -31 0
-12 -32 0
-9 -37 0
-10 -38 0
-11 -39 0
-12 -40 0
-13 -25 0
-14 -26 0
-15 -27 0
-16 -28 0
-13 -33 0
-14 -34 0
-15 -35 0
-16 -36 0
-17 -29 0
-18 -30 0
-19 -31 0
-20 -32 0
-17 -37 0
-18 -38 0
-19 -39 0
-20 -40 0
-17 -25 0
-18 -26 0
-19 -27 0
-20 -28 0
-21 -29 0
-22 -30 0
-23 -31 0
-24 -32 0
-21 -25 0
-22 -26 0
-23 -27 0
-24 -28 0
-21 -33 0
-22 -34 0
-23 -35 0
-24 -36 0
-33 -37 0
-34 -38 0
-35 -39 0
-36 -40 0
